125
[25,26,27,28,29,30,31,32,33,34,35,36,37,38,39,40,41,42,43,44,45,46,47,48,49,50,51,52,53,54,55,56,57,58,59,60,61,62,63,64,65,66,67,68,69,70,71,72,73,74,75,76,77,78,79,80,81,82,83,84,85,86,87]
[1,5,3,6,5,5,5,2,2,7,1,1,7,3,6,7,3,9,6,7,6,4,4,5,10,6,6,3,5,4,4,8,4,11,1,6,4,6,4,2,1,6,5,3,6,4,6,4,4,4,6,5,5,4,7,5,6,4,6,4,2,1,8]
